584,336
488,140
874,140
871,216
1028,583
491,780
681,916
792,748
745,605
681,916
639,672
644,520
672,465
778,476
672,434
425,489
269,107
515,-107
709,229
786,261
721,326
597,322
593,527
425,489
311,526
269,107
830,112
874,140
786,261
740,415
681,706
593,527
721,326
624,388
753,354
740,415
729,441
672,434
740,397
808,279
